c User generated cnf file
p cnf 12 70
4 8 -1 0 
6 -9 6 0 
11 -7 5 0 
10 2 -4 0 
12 -5 1 0 
2 -4 1 0 
3 -10 12 0 
7 5 -8 0 
4 2 -6 0 
1 3 -7 0 
4 -8 5 0 
11 -7 7 0 
3 1 -5 0 
1 -11 8 0 
9 11 -6 0 
1 -2 5 0 
7 10 -2 0 
7 7 -3 0 
5 -3 8 0 
7 -10 1 0 
10 -9 7 0 
12 4 -12 0 
7 -12 2 0 
12 1 -1 0 
4 -6 11 0 
8 12 -7 0 
9 -10 6 0 
12 7 -11 0 
8 -12 8 0 
9 10 -7 0 
9 -4 5 0 
1 -11 10 0 
6 6 -8 0 
10 9 -10 0 
5 6 -10 0 
12 6 -9 0 
5 -5 7 0 
2 4 -4 0 
6 -6 8 0 
4 1 -7 0 
3 -10 10 0 
12 -11 3 0 
12 -7 3 0 
7 -6 4 0 
3 -10 5 0 
6 10 -11 0 
8 -7 4 0 
8 -3 11 0 
11 -9 8 0 
2 2 -3 0 
6 8 -1 0 
6 -6 5 0 
7 8 -9 0 
1 -6 10 0 
2 12 -11 0 
1 4 -12 0 
4 2 -12 0 
10 -1 4 0 
2 -4 1 0 
6 -11 4 0 
10 -2 4 0 
9 -4 1 0 
3 -11 9 0 
1 10 -10 0 
8 2 -5 0 
5 2 -6 0 
2 -10 11 0 
11 -10 8 0 
9 -6 7 0 
3 -7 2 0 
